(declare-fun temp819_1 () (_ BitVec 64))
(declare-fun temp819_2 () (_ BitVec 64))
(declare-fun var201811 () (_ BitVec 64))
(declare-fun k!0 () Bool)
(declare-fun ARGNAME_input_NAMEEND_DIM () (_ BitVec 64))
(declare-fun temp819_3 () (_ BitVec 64))
(declare-fun var136001 () (_ BitVec 64))
(declare-fun temp819_4 () (_ BitVec 64))
(declare-fun temp819_5 () (_ BitVec 64))
(declare-fun ARGNAME_input_NAMEEND_DIMSIZE
             ()
             (Array (_ BitVec 64) (_ BitVec 64)))
(declare-fun temp819_6 () (_ BitVec 64))
(declare-fun temp819_7 () (_ BitVec 64))
(declare-fun temp819_8 () (_ BitVec 64))
(declare-fun temp819_9 () (_ BitVec 64))
(declare-fun temp819_10 () (_ BitVec 64))
(declare-fun temp819_11 () (_ BitVec 64))
(declare-fun temp819_12 () (_ BitVec 64))
(declare-fun temp819_13 () (_ BitVec 64))
(declare-fun temp819_14 () (_ BitVec 64))
(declare-fun temp819_15 () (_ BitVec 64))
(declare-fun temp819_16 () (_ BitVec 64))
(declare-fun temp819_17 () (_ BitVec 64))
(declare-fun temp819_18 () (_ BitVec 64))
(declare-fun temp819_19 () (_ BitVec 64))
(declare-fun temp819_20 () (_ BitVec 64))
(declare-fun temp819_21 () (_ BitVec 64))
(declare-fun temp819_22 () (_ BitVec 64))
(declare-fun temp819_23 () (_ BitVec 64))
(declare-fun temp819_24 () (_ BitVec 64))
(declare-fun var136000 () (_ BitVec 64))
(declare-fun temp819_25 () (_ BitVec 64))
(declare-fun var136003 () (_ BitVec 64))
(declare-fun temp819_26 () (_ BitVec 64))
(declare-fun temp819_27 () (_ BitVec 64))
(declare-fun temp819_28 () (_ BitVec 64))
(declare-fun var136002 () (_ BitVec 64))
(declare-fun var136004 () (_ BitVec 64))
(declare-fun temp819_29 () (_ BitVec 64))
(declare-fun temp819_30 () (_ BitVec 64))
(declare-fun var265930 () (_ BitVec 64))
(declare-fun temp819_31 () (_ BitVec 64))
(declare-fun temp819_32 () (_ BitVec 64))
(declare-fun var70465 () (_ BitVec 64))
(declare-fun temp819_33 () (_ BitVec 64))
(declare-fun temp819_34 () (_ BitVec 64))
(declare-fun temp819_35 () (_ BitVec 64))
(declare-fun var83043 () (_ BitVec 64))
(declare-fun temp819_36 () (_ BitVec 64))
(declare-fun temp819_37 () (_ BitVec 64))
(declare-fun temp819_39 () (_ BitVec 64))
(declare-fun temp819_38 () (_ BitVec 64))
(declare-fun temp819_40 () (_ BitVec 64))
(declare-fun var529219 () (_ BitVec 64))
(declare-fun temp819_41 () (_ BitVec 64))
(declare-fun temp819_42 () (_ BitVec 64))
(declare-fun temp819_43 () (_ BitVec 64))
(declare-fun var541838 () (_ BitVec 64))
(declare-fun temp819_44 () (_ BitVec 64))
(declare-fun var529217 () (_ BitVec 64))
(declare-fun temp819_45 () (_ BitVec 64))
(declare-fun temp819_46 () (_ BitVec 64))
(declare-fun temp819_47 () (_ BitVec 64))
(declare-fun var541841 () (_ BitVec 64))
(declare-fun temp819_49 () (_ BitVec 64))
(declare-fun temp819_48 () (_ BitVec 64))
(declare-fun temp819_51 () (_ BitVec 64))
(declare-fun temp819_50 () (_ BitVec 64))
(declare-fun temp819_52 () (_ BitVec 64))
(declare-fun var1775875 () (_ BitVec 64))
(declare-fun temp819_53 () (_ BitVec 64))
(declare-fun var1854999 () (_ BitVec 64))
(declare-fun temp819_54 () (_ BitVec 64))
(declare-fun var1855000 () (_ BitVec 64))
(declare-fun temp819_55 () (_ BitVec 64))
(declare-fun var2439727 () (_ BitVec 64))
(declare-fun temp819_56 () (_ BitVec 64))
(declare-fun var2439728 () (_ BitVec 64))
(declare-fun temp819_57 () (_ BitVec 64))
(declare-fun var869788 () (_ BitVec 64))
(declare-fun temp819_58 () (_ BitVec 64))
(declare-fun var869790 () (_ BitVec 64))
(declare-fun temp819_59 () (_ BitVec 64))
(declare-fun var2903614 () (_ BitVec 64))
(declare-fun temp819_60 () (_ BitVec 64))
(declare-fun var3360745 () (_ BitVec 64))
(declare-fun temp819_61 () (_ BitVec 64))
(declare-fun var4016158 () (_ BitVec 64))
(declare-fun temp819_63 () (_ BitVec 64))
(declare-fun temp819_62 () (_ BitVec 64))
(declare-fun temp819_64 () (_ BitVec 64))
(declare-fun var869789 () (_ BitVec 64))
(declare-fun temp819_65 () (_ BitVec 64))
(declare-fun var870012 () (_ BitVec 64))
(declare-fun temp819_67 () (_ BitVec 64))
(declare-fun var4738622 () (_ BitVec 64))
(declare-fun temp819_68 () (_ BitVec 64))
(declare-fun var4999145 () (_ BitVec 64))
(declare-fun temp819_69 () (_ BitVec 64))
(declare-fun var5457950 () (_ BitVec 64))
(declare-fun temp819_70 () (_ BitVec 64))
(declare-fun var5523486 () (_ BitVec 64))
(declare-fun temp819_71 () (_ BitVec 64))
(declare-fun var6180414 () (_ BitVec 64))
(declare-fun temp819_72 () (_ BitVec 64))
(declare-fun var6824779 () (_ BitVec 64))
(declare-fun temp819_73 () (_ BitVec 64))
(declare-fun var6890315 () (_ BitVec 64))
(declare-fun temp819_74 () (_ BitVec 64))
(declare-fun var7021441 () (_ BitVec 64))
(declare-fun temp819_75 () (_ BitVec 64))
(declare-fun var7021442 () (_ BitVec 64))
(declare-fun temp819_76 () (_ BitVec 64))
(declare-fun var7021443 () (_ BitVec 64))
(declare-fun temp819_77 () (_ BitVec 64))
(declare-fun var7608557 () (_ BitVec 64))
(declare-fun temp819_78 () (_ BitVec 64))
(declare-fun var8404237 () (_ BitVec 64))
(declare-fun temp819_79 () (_ BitVec 64))
(declare-fun var8535309 () (_ BitVec 64))
(declare-fun temp819_80 () (_ BitVec 64))
(declare-fun var9256205 () (_ BitVec 64))
(declare-fun temp819_81 () (_ BitVec 64))
(declare-fun var9311507 () (_ BitVec 64))
(declare-fun temp819_83 () (_ BitVec 64))
(declare-fun temp819_82 () (_ BitVec 64))
(assert (= temp819_1 #x0000000000000002))
(assert (= var201811
   (ite (bvslt ARGNAME_input_NAMEEND_DIM temp819_1)
        #x0000000000000001
        #x0000000000000000)))
(assert (= temp819_2 #x0000000000000000))
(assert (= var201811 temp819_2))
(assert (= temp819_3 #xffffffffffffffff))
(assert (= var136001 temp819_3))
(assert (= temp819_4 #x0000000000000000))
(assert (= temp819_5 temp819_4))
(assert (= temp819_6 (select ARGNAME_input_NAMEEND_DIMSIZE temp819_5)))
(assert (= temp819_7 #x0000000000000001))
(assert (= temp819_8 temp819_7))
(assert (= temp819_9 (select ARGNAME_input_NAMEEND_DIMSIZE temp819_8)))
(assert (= temp819_10 #x0000000000000002))
(assert (= temp819_11 temp819_10))
(assert (= temp819_12 (select ARGNAME_input_NAMEEND_DIMSIZE temp819_11)))
(assert (= temp819_13 #x0000000000000003))
(assert (= temp819_14 temp819_13))
(assert (= temp819_15 (select ARGNAME_input_NAMEEND_DIMSIZE temp819_14)))
(assert (= temp819_16 #x0000000000000004))
(assert (= temp819_17 temp819_16))
(assert (= temp819_18 (select ARGNAME_input_NAMEEND_DIMSIZE temp819_17)))
(assert (= temp819_19 #x0000000000000005))
(assert (= temp819_20 temp819_19))
(assert (= temp819_21 (select ARGNAME_input_NAMEEND_DIMSIZE temp819_20)))
(assert (= temp819_22 #x0000000000000000))
(assert (= temp819_23
   (ite (bvslt var136001 temp819_22)
        (bvadd ARGNAME_input_NAMEEND_DIM var136001)
        var136001)))
(assert (= temp819_24 (select ARGNAME_input_NAMEEND_DIMSIZE temp819_23)))
(assert (= var136000 temp819_24))
(assert (bvslt (ite (bvslt var136001 temp819_22)
            (bvadd ARGNAME_input_NAMEEND_DIM var136001)
            var136001)
       ARGNAME_input_NAMEEND_DIM))
(assert (= temp819_25 #xfffffffffffffffe))
(assert (= var136003 temp819_25))
(assert (= temp819_26 #x0000000000000000))
(assert (= temp819_27
   (ite (bvslt var136003 temp819_26)
        (bvadd ARGNAME_input_NAMEEND_DIM var136003)
        var136003)))
(assert (= temp819_28 (select ARGNAME_input_NAMEEND_DIMSIZE temp819_27)))
(assert (= var136002 temp819_28))
(assert (bvslt (ite (bvslt var136003 temp819_26)
            (bvadd ARGNAME_input_NAMEEND_DIM var136003)
            var136003)
       ARGNAME_input_NAMEEND_DIM))
(assert (= var136004
   (ite (= var136000 var136002) #x0000000000000001 #x0000000000000000)))
(assert (= temp819_29 #x0000000000000001))
(assert (= var136004 temp819_29))
(assert (= temp819_30 #x0000000000000001))
(assert (= var265930 temp819_30))
(assert (= temp819_31 #x0000000000000001))
(assert (= var265930 temp819_31))
(assert (= temp819_32 #xffffffffffffffff))
(assert (= var70465 temp819_32))
(assert (= temp819_33 #x0000000000000000))
(assert (= temp819_34
   (ite (bvslt var70465 temp819_33)
        (bvadd ARGNAME_input_NAMEEND_DIM var70465)
        var70465)))
(assert (= temp819_35 (select ARGNAME_input_NAMEEND_DIMSIZE temp819_34)))
(assert (= var83043 temp819_35))
(assert (bvslt (ite (bvslt var70465 temp819_33)
            (bvadd ARGNAME_input_NAMEEND_DIM var70465)
            var70465)
       ARGNAME_input_NAMEEND_DIM))
(assert (= temp819_36 #x0000000000000000))
(assert (distinct var83043 temp819_36))
(assert (= temp819_37 #x0000000000000001))
(assert (distinct var83043 temp819_37))
(assert (= temp819_39 #xffffffffffffffff))
(assert (= temp819_38 temp819_39))
(assert (= temp819_40 #xfffffffffffffffe))
(assert (= var529219 temp819_40))
(assert (= temp819_41 #x0000000000000000))
(assert (= temp819_42
   (ite (bvslt var529219 temp819_41)
        (bvadd ARGNAME_input_NAMEEND_DIM var529219)
        var529219)))
(assert (= temp819_43 (select ARGNAME_input_NAMEEND_DIMSIZE temp819_42)))
(assert (= var541838 temp819_43))
(assert (bvslt (ite (bvslt var529219 temp819_41)
            (bvadd ARGNAME_input_NAMEEND_DIM var529219)
            var529219)
       ARGNAME_input_NAMEEND_DIM))
(assert (= temp819_44 #xffffffffffffffff))
(assert (= var529217 temp819_44))
(assert (= temp819_45 #x0000000000000000))
(assert (= temp819_46
   (ite (bvslt var529217 temp819_45)
        (bvadd ARGNAME_input_NAMEEND_DIM var529217)
        var529217)))
(assert (= temp819_47 (select ARGNAME_input_NAMEEND_DIMSIZE temp819_46)))
(assert (= var541841 temp819_47))
(assert (bvslt (ite (bvslt var529217 temp819_45)
            (bvadd ARGNAME_input_NAMEEND_DIM var529217)
            var529217)
       ARGNAME_input_NAMEEND_DIM))
(assert (= temp819_49 #x0000000000000003))
(assert (= temp819_48 temp819_49))
(assert (= temp819_51 #xfffffffffffffffe))
(assert (= temp819_50 temp819_51))
(assert (= temp819_52 #x0000000000000000))
(assert (= var1775875 temp819_52))
(assert (= temp819_53 #xffffffffffffffff))
(assert (= var1854999 temp819_53))
(assert (= temp819_54 #x0000000000000000))
(assert (= var1855000 temp819_54))
(assert (= temp819_55 #x0000000000000000))
(assert (= var2439727 temp819_55))
(assert (= temp819_56 #x0000000000000000))
(assert (= var2439728 temp819_56))
(assert (= temp819_57 #x0000000000000000))
(assert (= var869788 temp819_57))
(assert (= temp819_58 #x0000000000000000))
(assert (= var869790
   (ite (= var869788 temp819_58) #x0000000000000001 #x0000000000000000)))
(assert (= temp819_59 #x0000000000000001))
(assert (= var869790 temp819_59))
(assert (= var2903614 var869788))
(assert (= temp819_60 #xffffffffffffffff))
(assert (= var3360745 temp819_60))
(assert (= temp819_61 #x0000000000000000))
(assert (= var4016158 temp819_61))
(assert (= temp819_63 #x0000000000000005))
(assert (= temp819_62 temp819_63))
(assert (= temp819_64 #x0000000000000001))
(assert (= var869789 (bvadd var869788 temp819_64)))
(assert (= temp819_65 #x0000000000000005))
(assert (= var870012
   (ite (= var869789 temp819_65) #x0000000000000001 #x0000000000000000)))
(assert (= temp819_67 #x0000000000000004))
(assert (= var4738622 temp819_67))
(assert (= temp819_68 #xffffffffffffffff))
(assert (= var4999145 temp819_68))
(assert (= temp819_69 #x0000000000000000))
(assert (= var5457950 temp819_69))
(assert (= temp819_70 #x0000000000000000))
(assert (= var5523486 temp819_70))
(assert (= temp819_71 #x0000000000000005))
(assert (= var6180414 temp819_71))
(assert (= temp819_72 #xffffffffffffffff))
(assert (= var6824779 temp819_72))
(assert (= temp819_73 #xffffffffffffffff))
(assert (= var6890315 temp819_73))
(assert (= temp819_74 #x0000000000000004))
(assert (= var7021441 temp819_74))
(assert (= temp819_75 #x0000000000000000))
(assert (= var7021442 temp819_75))
(assert (= temp819_76 #x0000000000000000))
(assert (= var7021443 temp819_76))
(assert (= temp819_77 #x0000000000000002))
(assert (= var7608557 temp819_77))
(assert (= temp819_78 #x0000000000000000))
(assert (= var8404237 temp819_78))
(assert (= temp819_79 #x0000000000000000))
(assert (= var8535309 temp819_79))
(assert (= temp819_80 #x0000000000000000))
(assert (= var9256205 temp819_80))
(assert (= temp819_81 #x0000000000000000))
(assert (= var9311507 temp819_81))
(assert (= temp819_83 #x0000000000000005))
(assert (= temp819_82 temp819_83))
(model-add temp819_1 () (_ BitVec 64) #x0000000000000002)
(model-add temp819_2 () (_ BitVec 64) #x0000000000000000)
(model-add var201811 () (_ BitVec 64) #x0000000000000000)
(model-del k!0)
(model-add ARGNAME_input_NAMEEND_DIM
           ()
           (_ BitVec 64)
           (ite (or k!0 (= #x0000000000000002 #x8000000000000000))
                #x0000000000000002
                (bvsub #x0000000000000002 #x0000000000000001)))






